605.83,62.15,70.98
560.42,67.19,76.73
561.8,67.02,76.54
576.56,65.3,74.58
597.53,63.01,71.97
520.64,72.32,82.59
568.67,66.21,75.62
539.84,69.75,79.66
568.23,66.26,75.68
530.38,70.99,81.08
516.79,72.86,83.21
554.16,67.94,77.6
563.04,66.87,76.37
569.95,66.06,75.45
550.04,68.45,78.18
525.52,71.65,81.83
586.76,64.17,73.29
590.86,63.72,72.78
634.65,59.33,67.76
574.86,65.5,74.8
